(set-logic QF_SLIA)
(declare-fun var0 () String)
(assert (not (str.in_re var0 (re.++ ((_ re.loop 0 352) (re.++ (re.union (str.to_re "JP") (re.union (str.to_re "N{e") (re.union (str.to_re "1U") (str.to_re "l-")))) (re.++ (re.union (str.to_re "k") (re.union (str.to_re "=TS") (re.union (str.to_re "Gs") (str.to_re "Q")))) (re.++ (re.union (str.to_re "\u0022") (re.union (str.to_re "<i") (re.union (str.to_re "R|") (str.to_re "h4")))) (re.union (str.to_re "WZo") (re.union (str.to_re "si") (re.union (str.to_re "{a<") (str.to_re "a")))))))) (re.++ ((_ re.loop 7 58) (re.++ (re.union (str.to_re "_") (re.union (str.to_re "c$") (re.union (str.to_re "qu") (str.to_re "7")))) (re.++ (re.union (str.to_re "36I") (re.union (str.to_re "P") (re.union (str.to_re "Q^") (str.to_re "YX")))) (re.++ (re.union (str.to_re "At#") (re.union (str.to_re "8U;") (re.union (str.to_re "~") (str.to_re "2l")))) (re.union (str.to_re "BqC") (re.union (str.to_re "oQT") (re.union (str.to_re "ec") (str.to_re ",?M")))))))) (re.++ ((_ re.loop 9 912) (re.++ (re.union (str.to_re "2") (re.union (str.to_re "rB") (re.union (str.to_re "T1") (str.to_re "qk")))) (re.++ (re.union (str.to_re "vF_") (re.union (str.to_re "2\u0022") (re.union (str.to_re "IpV") (str.to_re "O")))) (re.++ (re.union (str.to_re "?u") (re.union (str.to_re "Lk") (re.union (str.to_re "#") (str.to_re "4E")))) (re.union (str.to_re "5") (re.union (str.to_re "P") (re.union (str.to_re "U") (str.to_re "O1F")))))))) ((_ re.loop 14 378) (re.++ (re.union (str.to_re "6u") (re.union (str.to_re ";eO") (re.union (str.to_re "zA!") (str.to_re "Qwg")))) (re.++ (re.union (str.to_re "~") (re.union (str.to_re "e") (re.union (str.to_re "R#k") (str.to_re "?m")))) (re.++ (re.union (str.to_re "<") (re.union (str.to_re "p") (re.union (str.to_re "hv") (str.to_re "K'")))) (re.union (str.to_re "c^") (re.union (str.to_re "$") (re.union (str.to_re "F") (str.to_re "Y{"))))))))))))))
(assert (not (str.in_re var0 (re.++ ((_ re.loop 3 450) (re.++ (re.union (str.to_re "`") (re.union (str.to_re "DtB") (re.union (str.to_re "[^") (str.to_re "ID")))) (re.++ (re.union (str.to_re "f") (re.union (str.to_re "j") (re.union (str.to_re "d") (str.to_re "H")))) (re.++ (re.union (str.to_re "T") (re.union (str.to_re "<~") (re.union (str.to_re "47M") (str.to_re "t")))) (re.union (str.to_re "n") (re.union (str.to_re "dh") (re.union (str.to_re "S7k") (str.to_re "Y?9")))))))) (re.++ ((_ re.loop 13 359) (re.++ (re.union (str.to_re "0\u0022") (re.union (str.to_re "a\u0022V") (re.union (str.to_re "B") (str.to_re ",")))) (re.++ (re.union (str.to_re "4`a") (re.union (str.to_re "1") (re.union (str.to_re "%") (str.to_re "-dt")))) (re.++ (re.union (str.to_re "v") (re.union (str.to_re "+)4") (re.union (str.to_re "x") (str.to_re "<7")))) (re.union (str.to_re "nrf") (re.union (str.to_re "t") (re.union (str.to_re ";N(") (str.to_re "wqX")))))))) (re.++ ((_ re.loop 4 579) (re.++ (re.union (str.to_re "J%") (re.union (str.to_re "VF/") (re.union (str.to_re "tX") (str.to_re "@")))) (re.++ (re.union (str.to_re "ds") (re.union (str.to_re "wgR") (re.union (str.to_re "(kW") (str.to_re "2-")))) (re.++ (re.union (str.to_re "L") (re.union (str.to_re "W;") (re.union (str.to_re "2e") (str.to_re "eHg")))) (re.union (str.to_re "ec") (re.union (str.to_re "O") (re.union (str.to_re "j#") (str.to_re ";")))))))) ((_ re.loop 10 291) (re.++ (re.union (str.to_re "_l") (re.union (str.to_re "i") (re.union (str.to_re "n*") (str.to_re "e/")))) (re.++ (re.union (str.to_re "/") (re.union (str.to_re "t") (re.union (str.to_re "sa") (str.to_re "j5")))) (re.++ (re.union (str.to_re "Hdr") (re.union (str.to_re "!") (re.union (str.to_re "UH") (str.to_re "'cE")))) (re.union (str.to_re "%") (re.union (str.to_re "BSC") (re.union (str.to_re "V.") (str.to_re "x"))))))))))))))
(assert (not (str.in_re var0 (re.++ (re.* re.allchar) (re.++ (re.union (str.to_re "<") (re.union (str.to_re ">") (re.union (str.to_re "'") (re.union (str.to_re "\u0022") (str.to_re "&"))))) (re.* re.allchar))))))
(assert (<= 50 (str.len var0)))
(check-sat)
(get-model)
